num_tests = 10;
num_machines = 3;

num_resources =1;
max_time=15;

duration = [1, 2, 2, 2, 3, 3, 3, 4, 4, 5];
required_resources = [{}, {}, {}, {}, {1}, {}, {}, {1}, {1}, {}];
available_machines = [{1}, {1, 2, 3}, {1, 2, 3}, {2}, {1, 2, 3}, {1, 2, 3}, {3}, {1, 2, 3}, {1, 2, 3}, {1, 2, 3}];